ilp_joint/output/hibernation_ilp.lp
Maximize
  0.0286358748013604 Z_578_0_0 + 0.1797477591750883 Z_578_0_1
   + 0.0660584517438591 Z_578_0_2 + 0.0345741883409362 Z_578_0_3
   + 0.00441387929662914 Z_185_0_0 + 0.031261920321039 Z_185_0_1
   + 0.2738156459237397 Z_185_0_2 + 0.7264770969879386 Z_185_0_3
   + 0.00767684487908772 Z_498_0_0 + 0.6543974921997359 Z_498_0_1
   + 0.0172828863156961 Z_498_0_2 + 0.0485806806188608 Z_498_0_3 + [
   0.0577673681226839 Z_578_0_0 * Z_185_0_0
   + 0.0236151794928913 Z_578_0_0 * Z_498_0_0
   + 0.0577673681226839 Z_578_0_1 * Z_185_0_1
   + 0.0236151794928913 Z_578_0_1 * Z_498_0_1
   + 0.0577673681226839 Z_578_0_2 * Z_185_0_2
   + 0.0236151794928913 Z_578_0_2 * Z_498_0_2
   + 0.0577673681226839 Z_578_0_3 * Z_185_0_3
   + 0.0236151794928913 Z_578_0_3 * Z_498_0_3 ] / 2 
Subject To
 constraint1_5780: Z_578_0_0 + Z_578_0_1 + Z_578_0_2 + Z_578_0_3 <= 1
 constraint1_1850: Z_185_0_0 + Z_185_0_1 + Z_185_0_2 + Z_185_0_3 <= 1
 constraint1_4980: Z_498_0_0 + Z_498_0_1 + Z_498_0_2 + Z_498_0_3 <= 1
 constraint2_5780: Z_578_0_0 <= 1
 constraint2_5781: Z_578_0_1 <= 1
 constraint2_5782: Z_578_0_2 <= 1
 constraint2_5783: Z_578_0_3 <= 1
 constraint2_1850: Z_185_0_0 <= 1
 constraint2_1851: Z_185_0_1 <= 1
 constraint2_1852: Z_185_0_2 <= 1
 constraint2_1853: Z_185_0_3 <= 1
 constraint2_4980: Z_498_0_0 <= 1
 constraint2_4981: Z_498_0_1 <= 1
 constraint2_4982: Z_498_0_2 <= 1
 constraint2_4983: Z_498_0_3 <= 1
Bounds
Binaries
 Z_578_0_0 Z_578_0_1 Z_578_0_2 Z_578_0_3 Z_185_0_0 Z_185_0_1 Z_185_0_2
 Z_185_0_3 Z_498_0_0 Z_498_0_1 Z_498_0_2 Z_498_0_3
End
