ilp_joint/output/hibernation_ilp.sol
# Solution for model hibernation_srl_ilp
# Objective value = 1.5724299381092084e+00
Z_578_0_0 0
Z_578_0_1 1
Z_578_0_2 0
Z_578_0_3 0
Z_185_0_0 0
Z_185_0_1 0
Z_185_0_2 0
Z_185_0_3 1
Z_498_0_0 0
Z_498_0_1 1
Z_498_0_2 0
Z_498_0_3 0
